p cnf 10 50
-9 10 -1 0
-5 -1 -6 0
-4 3 -6 0
1 -6 -4 0
-8 -9 1 0
-8 6 3 0
-3 -5 4 0
5 -10 -2 0
-8 -4 5 0
7 8 -10 0
5 -6 2 0
6 -4 -5 0
-9 3 1 0
-8 -9 1 0
-5 4 -1 0
4 8 7 0
-4 -10 1 0
5 -10 -2 0
-9 6 -4 0
-6 -7 -4 0
5 -1 -4 0
5 -1 6 0
5 8 1 0
-3 -5 -10 0
9 -5 -3 0
-9 -5 7 0
9 3 -2 0
1 8 -4 0
6 8 9 0
1 2 6 0
2 4 10 0
-10 9 -8 0
4 -1 6 0
3 -10 -9 0
-1 5 4 0
-8 4 1 0
-2 -4 8 0
9 -2 -3 0
7 5 8 0
-2 9 -10 0
4 5 -3 0
-10 -2 -6 0
2 8 5 0
-1 -5 -10 0
3 -4 -9 0
-7 -2 4 0
-6 -3 -4 0
-8 -1 3 0
-2 6 3 0
-5 10 -1 0
